
;this file is automatically generated: Mon Feb 10 17:01:40 CST 2020

;declarations generated

(declare-fun oclExcludes ( Int Int) Bool)
(declare-fun type_26e0cd1c_2dd2_4fe0_b22c_8f280c285765_Class9 ( Int) Bool)
(declare-fun class9_Class9BoolAttr2 ( Int) Bool)
(declare-fun class9_Class9BoolAttr1 ( Int) Bool)
(declare-fun Cardinality ( Int) Int)
(declare-fun oclSelect ( Int Bool) Int)
(declare-fun class9_Class9IntAttr4 ( Int) Int)
(declare-fun class9_Class9IntAttr3 ( Int) Int)
(declare-fun Enum0 ( Int) Int)
(declare-fun Enum1 ( Int) Int)
(declare-fun Enum2 ( Int) Int)
(declare-fun container_ ( Int) Int)
(declare-fun oclIncludes ( Int Int) Bool)
(declare-fun obj_366cee42_aa9a_46ed_88d5_ae7653d848d8 ( Int) Int)
(declare-fun ObjAt ( Int Int) Int)

;formula(s) generated
(assert (! (forall ((v Int)) (=> ( type_26e0cd1c_2dd2_4fe0_b22c_8f280c285765_Class9 v )  (or (> ( class9_Class9IntAttr3 ( obj_366cee42_aa9a_46ed_88d5_ae7653d848d8 v )  )  13) (or (forall ((v Int)) (=> ( type_26e0cd1c_2dd2_4fe0_b22c_8f280c285765_Class9 v )  ( class9_Class9BoolAttr2 ( obj_366cee42_aa9a_46ed_88d5_ae7653d848d8 v )  ) )) (forall ((v Int)) (=> ( type_26e0cd1c_2dd2_4fe0_b22c_8f280c285765_Class9 v )  ( class9_Class9BoolAttr1 ( obj_366cee42_aa9a_46ed_88d5_ae7653d848d8 v )  ) )))))):named l0))
(assert (! (forall ((v Int)) (=> ( type_26e0cd1c_2dd2_4fe0_b22c_8f280c285765_Class9 v )  (not ( class9_Class9BoolAttr1 ( obj_366cee42_aa9a_46ed_88d5_ae7653d848d8 v )  )  ))):named l1))
(assert (! (forall ((c9_2 Int)(c9_1 Int)) (=> (and ( type_26e0cd1c_2dd2_4fe0_b22c_8f280c285765_Class9 c9_1 )  ( type_26e0cd1c_2dd2_4fe0_b22c_8f280c285765_Class9 c9_2 ) ) (= ( class9_Class9IntAttr4 ( obj_366cee42_aa9a_46ed_88d5_ae7653d848d8 c9_1 )  )  ( class9_Class9IntAttr3 ( obj_366cee42_aa9a_46ed_88d5_ae7653d848d8 c9_2 )  ) ))):named l2))
(assert (! (forall ((v Int)) (=> ( type_26e0cd1c_2dd2_4fe0_b22c_8f280c285765_Class9 v )  (>= ( class9_Class9IntAttr3 ( obj_366cee42_aa9a_46ed_88d5_ae7653d848d8 v )  )  12))):named l3))
(assert (exists ((o Int)) ( type_26e0cd1c_2dd2_4fe0_b22c_8f280c285765_Class9 ( obj_366cee42_aa9a_46ed_88d5_ae7653d848d8 o )  ) ))

 ;end of formula 